NAME : OMNETRUN
COMMENT : 524.61
TYPE : CVRP
DIMENSION : 21
EDGE_WEIGHT_TYPE : EUC_2D
CAPACITY : 21
NODE_COORD_SECTION
1 0.107093 -0.77924
2 133.306 -6.67809
3 101.142 -1474.96
4 89.8295 -1867.46
5 105.982 -3403.64
6 139.643 -4069.09
7 42.7932 -4550.05
8 123.12 -5748.91
9 341.024 -374.111
10 301.861 -776.343
11 415.548 -1217.69
12 429.41 -2826.22
13 396.904 -5266.49
14 674.01 -109.829
15 692.055 -733.841
16 561.757 -1789.55
17 573.585 -2166.27
18 555.888 -3425.58
19 732.425 -3946.28
20 648.538 -4398.97
21 657.072 -5776.56
DEMAND_SECTION
1 0
2 1
3 1
4 1
5 1
6 1
7 1
8 1
9 1
10 1
11 1
12 1
13 1
14 1
15 1
16 1
17 1
18 1
19 1
20 1
21 1
DEPOT_SECTION
1
-1
EOF
